0 53852 
1 53786 
2 52330 
3 52250 
4 52174 
5 52164 
6 49630 
7 49538 
8 48640 
9 47974 
10 44768 
11 44248 
12 43976 
13 43920 
14 42992 
15 42262 
16 39820 
17 39428 
18 36656 
19 35382 
20 35234 
21 35096 
22 34840 
23 33292 
24 32878 
25 32492 
26 31570 
27 31564 
28 30412 
29 29690 
30 25658 
31 25162 
32 25156 
33 24500 
34 24390 
35 24382 
36 23814 
37 23728 
38 23402 
39 23162 
40 22872 
41 22820 
42 22622 
43 22050 
44 21260 
45 21218 
46 20376 
47 19970 
48 19572 
49 19328 
50 19152 
51 19142 
52 19010 
53 16902 
54 16662 
55 15046 
56 14138 
57 14138 

